p edge 8 34
e 1 8
e 1 7
e 1 6
e 1 4
e 1 2
e 2 8
e 2 6
e 2 1
e 3 7
e 3 4
e 4 8
e 4 7
e 4 6
e 4 5
e 4 3
e 4 1
e 5 8
e 5 6
e 5 4
e 6 8
e 6 5
e 6 4
e 6 2
e 6 1
e 7 8
e 7 4
e 7 3
e 7 1
e 8 7
e 8 6
e 8 5
e 8 4
e 8 2
e 8 1
